10	5
0	5	3	2	4	1	5
1	1	7
2	1	10
3	0
4	1	6
5	1	8
6	1	10
7	1	10
8	1	9
9	1	11
10	1	11
11	0
0	0	0	0	0	0	0
1	4	3	4	5	4	0
2	9	0	3	0	2	5
3	10	0	3	4	1	0
4	1	0	5	0	0	0
5	9	0	0	1	0	4
6	10	4	3	4	3	4
7	2	2	0	0	4	0
8	9	0	0	0	0	5
9	8	1	0	0	0	2
10	9	3	3	0	0	0
11	0	0	0	0	0	0
4	5	5	5	5
